% File represents an instance of a Composite Structure problem to be solved by a CP framework
% Created on 2025-03-26 10:42:19.182
T = 50;
n = 36;
m = 60;
edges = [(2, 1),
(7, 8),
(13, 14),
(19, 20),
(25, 26),
(31, 32),
(2, 3),
(8, 9),
(15, 14),
(20, 21),
(26, 27),
(32, 33),
(3, 4),
(9, 10),
(15, 16),
(21, 22),
(27, 28),
(33, 34),
(4, 5),
(11, 10),
(16, 17),
(22, 23),
(28, 29),
(34, 35),
(6, 5),
(11, 12),
(17, 18),
(23, 24),
(29, 30),
(35, 36),
(7, 1),
(13, 7),
(19, 13),
(25, 19),
(31, 25),
(2, 8),
(8, 14),
(20, 14),
(26, 20),
(32, 26),
(3, 9),
(15, 9),
(21, 15),
(27, 21),
(33, 27),
(4, 10),
(16, 10),
(22, 16),
(22, 28),
(34, 28),
(11, 5),
(11, 17),
(23, 17),
(23, 29),
(35, 29),
(6, 12),
(18, 12),
(24, 18),
(24, 30),
(36, 30)];
counts = [|4, 8, 4, 8,
|4, 12, 4, 10,
|4, 10, 4, 10,
|2, 10, 2, 8,
|2, 8, 2, 4,
|2, 8, 2, 6,
|4, 14, 4, 8,
|4, 12, 4, 8,
|4, 8, 4, 6,
|2, 8, 2, 6,
|2, 10, 2, 8,
|2, 6, 2, 6,
|4, 14, 4, 10,
|4, 12, 4, 6,
|4, 12, 4, 8,
|2, 12, 2, 8,
|2, 10, 2, 6,
|2, 8, 2, 6,
|6, 14, 6, 12,
|4, 14, 4, 10,
|4, 14, 4, 8,
|4, 12, 4, 8,
|4, 12, 4, 6,
|4, 8, 4, 6,
|8, 14, 8, 14,
|6, 14, 6, 12,
|4, 14, 4, 10,
|4, 12, 4, 6,
|4, 10, 4, 6,
|4, 8, 4, 2,
|10, 14, 10, 16,
|8, 14, 8, 14,
|6, 14, 6, 12,
|6, 14, 6, 6,
|6, 10, 6, 6,
|6, 10, 6, 2|];
